
Gurobi 11.0.3 (win64) logging started Wed Sep  4 11:04:41 2024

Set parameter LogFile to value "C:\Users\ealvarezq\Desktop\E.Representative_days_based_on_Line_Benefits_OptModel\IEEE118_mod2_ByStages_nc70/openStarNet_IEEE118_mod2_ByStages_nc70.log"
Set parameter Method to value 2
Set parameter MIPFocus to value 1
Set parameter Presolve to value 2
Set parameter RINS to value 100
Set parameter MIPGap to value 0.01
Set parameter Threads to value 24
Set parameter TimeLimit to value 259200
Set parameter IterationLimit to value 760000000
Gurobi Optimizer version 11.0.3 build v11.0.3rc0 (win64 - Windows Server 2019.0 (17763.2))

CPU model: AMD Ryzen Threadripper PRO 3955WX 16-Cores, instruction set [SSE2|AVX|AVX2]
Thread count: 16 physical cores, 32 logical processors, using up to 24 threads

Optimize a model with 99473 rows, 73500 columns and 256126 nonzeros
Model fingerprint: 0xbedd8dd5
Variable types: 73466 continuous, 34 integer (34 binary)
Coefficient statistics:
  Matrix range     [3e-04, 9e+03]
  Objective range  [1e+00, 1e+00]
  Bounds range     [1e-04, 3e+00]
  RHS range        [2e-04, 3e+00]
Presolve removed 67217 rows and 33721 columns
Presolve time: 0.58s
Presolved: 32256 rows, 39779 columns, 117978 nonzeros
Variable types: 39745 continuous, 34 integer (34 binary)
Root relaxation presolved: 32256 rows, 39779 columns, 117978 nonzeros

Root barrier log...

Ordering time: 0.02s

Barrier statistics:
 Dense cols : 34
 AA' NZ     : 1.459e+05
 Factor NZ  : 5.655e+05 (roughly 34 MB of memory)
 Factor Ops : 1.181e+07 (less than 1 second per iteration)
 Threads    : 23

                  Objective                Residual
Iter       Primal          Dual         Primal    Dual     Compl     Time
   0   8.77644275e+06 -3.43427320e+09  1.55e+01 5.50e+03  1.59e+05     1s
   1   2.06998150e+06 -1.32258996e+09  3.37e+00 8.99e-08  3.25e+04     2s
   2   5.26163762e+05 -1.06700312e+09  6.01e-01 7.38e-08  1.42e+04     2s
   3   3.25728876e+05 -1.85877027e+08  2.04e-01 1.18e-08  2.37e+03     2s
   4   2.15355266e+05 -2.11459656e+07  1.39e-02 2.01e-09  2.31e+02     2s
   5   1.25232966e+05 -4.90481288e+06  1.20e-03 4.31e-10  5.29e+01     2s
   6   6.81920807e+04 -1.26143556e+06  4.23e-04 1.09e-10  1.40e+01     2s
   7   3.25759381e+04 -3.28236117e+05  8.61e-05 3.64e-11  3.78e+00     2s
   8   1.76623948e+04 -6.22721187e+04  2.81e-05 1.38e-11  8.38e-01     2s
   9   1.15130233e+04 -3.33282215e+04  1.68e-05 1.81e-11  4.70e-01     2s
  10   7.34482007e+03 -1.91070128e+04  9.66e-06 1.93e-11  2.77e-01     2s
  11   5.57826709e+03 -1.01439882e+04  6.88e-06 1.31e-11  1.65e-01     2s
  12   3.22759171e+03 -4.20218585e+03  3.25e-06 2.62e-11  7.79e-02     2s
  13   2.10177353e+03 -1.87550635e+03  1.61e-06 1.40e-11  4.17e-02     2s
  14   1.58749090e+03 -3.88784877e+02  9.13e-07 2.88e-11  2.07e-02     2s
  15   1.19824640e+03  2.71426514e+02  4.12e-07 2.24e-11  9.72e-03     2s
  16   1.05848119e+03  5.14166703e+02  2.50e-07 6.44e-12  5.71e-03     2s
  17   9.92285257e+02  6.32514667e+02  1.74e-07 1.14e-11  3.77e-03     2s
  18   9.27267221e+02  7.04831269e+02  1.01e-07 4.54e-12  2.33e-03     2s
  19   9.01255787e+02  7.41788154e+02  7.30e-08 7.50e-12  1.67e-03     2s
  20   8.82609750e+02  7.82011739e+02  5.35e-08 8.44e-12  1.05e-03     2s
  21   8.56819723e+02  7.97150618e+02  2.75e-08 1.23e-11  6.26e-04     2s
  22   8.41938051e+02  8.09071624e+02  1.30e-08 1.49e-11  3.45e-04     2s
  23   8.34857825e+02  8.18579170e+02  5.75e-09 5.62e-12  1.71e-04     2s
  24   8.32180868e+02  8.21801567e+02  3.15e-09 4.42e-12  1.09e-04     2s
  25   8.30605286e+02  8.24712419e+02  1.66e-09 1.16e-11  6.18e-05     2s
  26   8.29586053e+02  8.26489315e+02  7.52e-10 4.93e-12  3.25e-05     2s
  27   8.29180155e+02  8.27316954e+02  4.03e-10 5.24e-12  1.95e-05     2s
  28   8.28832676e+02  8.28223176e+02  2.29e-10 8.43e-12  6.39e-06     2s
  29   8.28728530e+02  8.28512020e+02  6.70e-11 6.32e-12  2.27e-06     2s
  30   8.28694834e+02  8.28611418e+02  4.93e-10 6.71e-12  8.74e-07     2s
  31   8.28681516e+02  8.28670848e+02  8.69e-10 1.59e-11  1.12e-07     2s
  32   8.28678985e+02  8.28677889e+02  3.11e-09 1.50e-11  1.15e-08     2s
  33   8.28678609e+02  8.28678431e+02  7.17e-09 2.02e-11  1.83e-09     2s
  34   8.28678527e+02  8.28678510e+02  2.74e-09 8.21e-12  1.53e-10     2s
  35   8.28678519e+02  8.28678517e+02  6.37e-10 2.85e-11  1.16e-11     2s

Barrier solved model in 35 iterations and 2.20 seconds (1.17 work units)
Optimal objective 8.28678519e+02


Root relaxation: objective 8.286785e+02, 2836 iterations, 1.81 seconds (0.90 work units)

    Nodes    |    Current Node    |     Objective Bounds      |     Work
 Expl Unexpl |  Obj  Depth IntInf | Incumbent    BestBd   Gap | It/Node Time

     0     0  828.67852    0   23          -  828.67852      -     -    3s
H    0     0                    6419.0968462  828.67852  87.1%     -    5s
H    0     0                    2082.8844830  828.67852  60.2%     -    6s
     0     0  846.60837    0   24 2082.88448  846.60837  59.4%     -    9s
     0     0  847.05996    0   23 2082.88448  847.05996  59.3%     -   10s
     0     0  847.37856    0   23 2082.88448  847.37856  59.3%     -   10s
     0     0  849.37999    0   23 2082.88448  849.37999  59.2%     -   12s
H    0     0                     974.2676966  849.37999  12.8%     -   13s
     0     0  849.50014    0   23  974.26770  849.50014  12.8%     -   13s
     0     0  850.32050    0   20  974.26770  850.32050  12.7%     -   14s
     0     0  855.45766    0   20  974.26770  855.45766  12.2%     -   17s
     0     0  855.45766    0   20  974.26770  855.45766  12.2%     -   17s
     0     0  855.48994    0   20  974.26770  855.48994  12.2%     -   18s
     0     0  855.48994    0   20  974.26770  855.48994  12.2%     -   18s
     0     0  855.48994    0   20  974.26770  855.48994  12.2%     -   19s
H    0     0                     938.7974856  855.48994  8.87%     -  211s
     0     2  855.48994    0   20  938.79749  855.48994  8.87%     -  212s
     3     8  929.77645    2   17  938.79749  867.39735  7.61%  2028  226s
     7     9     cutoff    3       938.79749  875.45680  6.75%  2293  245s
    15    12  893.20999    4   15  938.79749  882.42369  6.00%  2456  252s
    24    20  896.40021    5   15  938.79749  893.66514  4.81%  2264  256s
    36    26  901.06044    6   13  938.79749  896.93244  4.46%  1857  265s
    56    40  916.90418    7   13  938.79749  901.29475  3.99%  1923  270s
    80    48     cutoff    8       938.79749  908.15858  3.26%  1764  278s
   104    54  921.97953    9   12  938.79749  912.32638  2.82%  1643  285s
   163    66     cutoff   12       938.79749  912.32638  2.82%  1382  296s
   240    37  923.21962   10   11  938.79749  912.32638  2.82%  1132  305s
   287    26  930.49455   11   11  938.79749  912.32638  2.82%  1069  310s
   378     3  930.73580   11   10  938.79749  928.63567  1.08%   896  315s

Cutting planes:
  Implied bound: 177
  MIR: 331
  Relax-and-lift: 1

Explored 382 nodes (349684 simplex iterations) in 315.51 seconds (245.66 work units)
Thread count was 24 (of 32 available processors)

Solution count 4: 938.797 974.268 2082.88 6419.1 

Optimal solution found (tolerance 1.00e-02)
Best objective 9.387974855519e+02, best bound 9.349844052595e+02, gap 0.4062%

Gurobi 11.0.3 (win64) logging started Wed Sep  4 11:10:35 2024

Set parameter LogFile to value "C:\Users\ealvarezq\Desktop\E.Representative_days_based_on_Line_Benefits_OptModel\IEEE118_mod2_ByStages_nc70/openStarNet_IEEE118_mod2_ByStages_nc70.log"
Set parameter Method to value 2
Set parameter MIPFocus to value 1
Set parameter Presolve to value 2
Set parameter RINS to value 100
Set parameter MIPGap to value 0.01
Set parameter Threads to value 24
Set parameter TimeLimit to value 259200
Set parameter IterationLimit to value 760000000
Gurobi Optimizer version 11.0.3 build v11.0.3rc0 (win64 - Windows Server 2019.0 (17763.2))

CPU model: AMD Ryzen Threadripper PRO 3955WX 16-Cores, instruction set [SSE2|AVX|AVX2]
Thread count: 16 physical cores, 32 logical processors, using up to 24 threads

Optimize a model with 99473 rows, 73466 columns and 246572 nonzeros
Model fingerprint: 0x63678ae9
Coefficient statistics:
  Matrix range     [3e-04, 9e+03]
  Objective range  [1e+00, 1e+00]
  Bounds range     [1e-04, 3e+00]
  RHS range        [2e-04, 2e+02]
Presolve removed 74203 rows and 32295 columns
Presolve time: 0.22s
Presolved: 25270 rows, 41451 columns, 99263 nonzeros

Ordering time: 0.01s

Barrier statistics:
 AA' NZ     : 8.324e+04
 Factor NZ  : 3.328e+05 (roughly 30 MB of memory)
 Factor Ops : 4.826e+06 (less than 1 second per iteration)
 Threads    : 24

                  Objective                Residual
Iter       Primal          Dual         Primal    Dual     Compl     Time
   0   1.45057881e+07 -1.85455480e+09  8.20e+01 4.34e+02  7.91e+04     0s
   1   1.76974462e+06 -5.36823821e+08  8.93e+00 7.28e-12  1.08e+04     1s
   2   3.39732465e+05 -9.45135814e+07  9.37e-01 7.28e-12  1.37e+03     1s
   3   1.64784608e+05 -9.55357105e+06  1.75e-02 6.37e-12  1.10e+02     1s
   4   7.72006474e+04 -1.40171087e+06  6.08e-04 9.09e-12  1.63e+01     1s
   5   3.86052835e+04 -3.58960829e+05  1.61e-04 2.27e-12  4.39e+00     1s
   6   2.14128782e+04 -1.16258865e+05  6.05e-05 1.37e-12  1.52e+00     1s
   7   1.05735823e+04 -3.94587095e+04  1.95e-05 2.50e-12  5.52e-01     1s
   8   6.52460203e+03 -1.83726513e+04  1.05e-05 1.34e-12  2.75e-01     1s
   9   3.58857952e+03 -7.15168148e+03  4.52e-06 1.17e-12  1.19e-01     1s
  10   2.21348164e+03 -2.09897215e+03  1.97e-06 8.36e-13  4.76e-02     1s
  11   1.65451314e+03 -4.44414321e+02  1.05e-06 1.75e-12  2.32e-02     1s
  12   1.36609395e+03  6.65325304e+01  5.93e-07 1.77e-12  1.43e-02     1s
  13   1.20554362e+03  5.51799261e+02  3.51e-07 8.59e-13  7.22e-03     1s
  14   1.09554616e+03  7.09147474e+02  1.97e-07 7.85e-13  4.27e-03     1s
  15   1.03904685e+03  8.09477118e+02  1.21e-07 9.05e-13  2.53e-03     1s
  16   9.92921158e+02  8.80402826e+02  6.17e-08 8.17e-13  1.24e-03     1s
  17   9.72206034e+02  9.07264714e+02  3.69e-08 9.81e-13  7.17e-04     1s
  18   9.54066878e+02  9.19629336e+02  1.60e-08 1.17e-12  3.80e-04     1s
  19   9.48384599e+02  9.28701555e+02  9.80e-09 1.06e-12  2.17e-04     1s
  20   9.44776227e+02  9.34624220e+02  6.00e-09 1.28e-12  1.12e-04     1s
  21   9.41414866e+02  9.37103689e+02  2.52e-09 9.22e-13  4.76e-05     1s
  22   9.39538710e+02  9.37926695e+02  6.73e-10 1.31e-12  1.78e-05     1s
  23   9.39132838e+02  9.38393553e+02  3.49e-10 2.78e-12  8.16e-06     1s
  24   9.38918061e+02  9.38669539e+02  1.71e-10 1.04e-12  2.74e-06     1s
  25   9.38849255e+02  9.38735918e+02  1.36e-10 7.95e-13  1.25e-06     1s
  26   9.38807533e+02  9.38781638e+02  4.05e-11 9.86e-13  2.86e-07     1s
  27   9.38797932e+02  9.38795228e+02  1.25e-10 2.08e-12  2.99e-08     1s
  28   9.38797605e+02  9.38797206e+02  2.30e-10 1.24e-12  4.41e-09     1s
  29   9.38797487e+02  9.38797481e+02  3.80e-10 1.33e-12  7.14e-11     1s

Barrier solved model in 29 iterations and 1.12 seconds (0.48 work units)
Optimal objective 9.38797487e+02

Crossover log...

    7176 DPushes remaining with DInf 0.0000000e+00                 1s
       0 DPushes remaining with DInf 0.0000000e+00                 1s

     286 PPushes remaining with PInf 0.0000000e+00                 1s
       0 PPushes remaining with PInf 0.0000000e+00                 1s

  Push phase complete: Pinf 0.0000000e+00, Dinf 2.2105331e-12      1s

Iteration    Objective       Primal Inf.    Dual Inf.      Time
    3050    9.3879749e+02   0.000000e+00   0.000000e+00      1s

Solved in 3050 iterations and 1.37 seconds (0.58 work units)
Optimal objective  9.387974856e+02
